
  22    0


   0  12 2 3 4 6 7 8 9 17 18 19 20 21 
   7   5 16 13 12 11 10 
   8   2 15 5 
   5   3 14 13 10 
   4   2 11 10 
   4   2 11 10 
   2   1 12 
   5   1 11 
   7   1 10 
   2   1 22
   4   1 22
   6   1 22
  10   1 22
  10   1 22
   2   1 22
   2   1 22
  10   1 22
   5   1 22
  10   1 22
   5   1 22
   9   1 22
   0   0 
